c ---- [ banner ] ------------------------------------------------------------
c
c Kissat SAT Solver
c 
c Copyright (c) 2021-2024 Armin Biere University of Freiburg
c Copyright (c) 2019-2021 Armin Biere Johannes Kepler University Linz
c 
c Version 4.0.1 43f02cf3e992cb44653b35e5cb26f93281552ae0
c gcc (Ubuntu 13.2.0-23ubuntu4) 13.2.0 -W -Wall -O3 -DNDEBUG
c Thu Sep 12 12:27:46 CEST 2024 Linux abryzen9 6.8.0-41-generic x86_64
c
c ---- [ parsing ] -----------------------------------------------------------
c
c opened and reading DIMACS file:
c
c   /data/artifact/AMulet2.0_artifact/exp4/cnf_sopb_64/64_64_U1_WT_BK_Multgen_sopb.cnf
c
c parsed 'p cnf 30021 133137' header
c closing input after reading 2677162 bytes (3 MB)
c finished parsing after 0.02 seconds
c
c ---- [ options ] -----------------------------------------------------------
c
c --stable=0                       (different from default '1')
c
c ---- [ solving ] -----------------------------------------------------------
c
c  seconds switched rate     size/glue tier1  binary           remaining
c         MB reductions conflicts size  tier2     irredundant
c          level restarts redundant glue  trail           variables
c
c *  0.02 10 0 0 0  0 0   0   0 0.0 0 0 0 0 0% 13487 119648 30018 100%
c (  0.03 12 0 0 0  0 0   0   0 0.0 0 0 0 0 0% 13487 119648 30018 100%
c .  0.04 13 0 0 0  0 0   0   0 0.0 0 0 0 0 0% 13483 119648 30018 100%
c c  0.09 18 0 0 0  0 0   0   0 0.0 0 0 0 0 0% 18356 110181 27589 92%
c d  0.10 18 0 0 0  0 0   0   0 0.0 0 0 0 0 0% 13498 110181 27589 92%
c =  0.14 18 0 0 0  0 0   0   0 0.0 0 0 0 0 0% 13394 110180 27562 92%
c d  0.14 18 0 0 0  0 0   0   0 0.0 0 0 0 0 0% 13339 110180 27562 92%
c f  0.22 18 0 0 0  0 0   0   0 0.0 0 0 0 0 0% 18904 101385 30717 102%
c e  0.42 25 0 0 0  0 0   0   0 0.0 0 0 0 0 0% 11588 110793 21353 71%
c )  0.42 25 0 0 0  0 0   0   0 0.0 0 0 0 0 0% 11588 110793 21353 71%
c {  0.44 25 0 0 0  0 0   0   0 0.0 0 0 2 6 0% 11588 110793 21353 71%
c -  0.70 26 101 0 1 328 39 1000 630 3.6 18 5 3 9 16% 11726 110782 21353 71%
c -  1.07 26 255 0 2 537 50 2000 1350 4.1 24 6 3 11 21% 11764 110770 21353 71%
c c  1.29 22 280 0 2 629 58 2504 1749 4.2 25 6 3 11 22% 11800 110729 21346 71%
c d  1.30 22 280 0 2 629 58 2504 1746 4.2 25 6 3 11 22% 11786 110729 21346 71%
c u  1.33 22 280 0 2 629 58 2504 1405 4.2 25 6 3 11 22% 11808 110729 21346 71%
c v  1.36 22 280 0 2 629 58 2504 1129 4.2 25 6 3 11 22% 11808 110729 21346 71%
c w  1.40 25 280 0 2 629 58 2504 1129 4.2 25 6 3 11 22% 11808 110729 21346 71%
c x  1.42 25 280 0 2 629 58 2504 1128 4.2 25 6 3 11 22% 11899 110543 21346 71%
c =  1.52 25 280 0 2 629 58 2504 1128 4.2 25 6 3 11 22% 12165 110543 21213 71%
c
c  seconds   switched   rate       size/glue tier1     binary           remaining
c         MB  reductions conflicts       size  tier2       irredundant
c           level restarts    redundant    glue    trail           variables
c
c d  1.53 25 280 0 2 629 58 2504 1124 4.2 25 6 3 11 22% 11886 110543 21212 71%
c t  1.55 25 280 0 2 629 58 2504 1124 4.2 25 6 3 11 22% 11885 110543 21212 71%
c f  1.59 25 280 0 2 629 58 2504 1124 4.2 25 6 3 11 22% 13354 108001 22233 74%
c u  1.62 25 280 0 2 629 58 2504 1088 4.2 25 6 3 11 22% 13360 108001 22233 74%
c v  1.64 25 280 0 2 629 58 2504 1051 4.2 25 6 3 11 22% 13361 108001 22233 74%
c w  1.69 25 280 0 2 629 58 2504 1048 4.2 25 6 3 11 22% 13361 108001 22233 74%
c x  1.71 25 280 0 2 629 58 2504 1048 4.2 25 6 3 11 22% 13362 107857 22233 74%
c =  1.81 25 280 0 2 629 58 2504 1048 4.2 25 6 3 11 22% 13472 107857 22178 74%
c d  1.82 25 280 0 2 629 58 2504 1047 4.2 25 6 3 11 22% 13353 107857 22178 74%
c f  1.87 25 280 0 2 629 58 2504 1047 4.2 25 6 3 11 22% 14132 106678 22569 75%
c -  2.48 26 276 0 3 834 60 3414 1524 4.5 41 9 3 13 25% 14168 106678 22569 75%
c -  2.81 26 339 0 4 920 49 5147 2573 4.4 36 8 3 12 26% 14243 106675 22569 75%
c -  3.11 26 393 0 5 1007 42 7148 3656 4.2 31 7 3 11 24% 14383 106670 22569 75%
c c  3.42 26 381 0 5 1077 41 7711 4160 4.1 31 8 3 11 24% 14400 106591 22550 75%
c d  3.43 26 381 0 5 1077 41 7711 4159 4.1 31 8 3 11 24% 14347 106591 22541 75%
c u  3.47 26 381 0 5 1077 41 7711 3332 4.1 31 8 3 11 24% 14369 106591 22541 75%
c v  3.51 26 381 0 5 1077 41 7711 3029 4.1 31 8 3 11 24% 14370 106591 22541 75%
c w  3.55 26 381 0 5 1077 41 7711 3028 4.1 31 8 3 11 24% 14370 106591 22541 75%
c x  3.58 26 381 0 5 1077 41 7711 3028 4.1 31 8 3 11 24% 14371 106557 22541 75%
c =  3.71 26 381 0 5 1077 41 7711 3028 4.1 31 8 3 11 24% 15125 106557 22164 74%
c
c  seconds   switched    rate       size/glue tier1     binary           remaining
c         MB  reductions  conflicts       size  tier2       irredundant
c           level  restarts    redundant    glue    trail           variables
c
c d  3.72 26 381 0 5 1077 41 7711 3014 4.1 31 8 3 11 24% 14221 106557 22163 74%
c t  3.74 26 381 0 5 1077 41 7711 3014 4.1 31 8 3 11 24% 14159 106557 22163 74%
c f  3.79 26 381 0 5 1077 41 7711 3014 4.1 31 8 3 11 24% 15160 105046 22667 76%
c u  3.83 26 381 0 5 1077 41 7711 2905 4.1 31 8 3 11 24% 15161 105046 22667 76%
c v  3.86 26 381 0 5 1077 41 7711 2839 4.1 31 8 3 11 24% 15161 105046 22667 76%
c w  3.93 26 381 0 5 1077 41 7711 2829 4.1 31 8 3 11 24% 15161 105046 22667 76%
c =  4.06 26 381 0 5 1077 41 7711 2829 4.1 31 8 3 11 24% 15727 105046 22384 75%
c d  4.07 26 381 0 5 1077 41 7711 2820 4.1 31 8 3 11 24% 14983 105046 22384 75%
c t  4.09 26 381 0 5 1077 41 7711 2820 4.1 31 8 3 11 24% 14932 105046 22384 75%
c f  4.14 26 381 0 5 1077 41 7711 2820 4.1 31 8 3 11 24% 16979 101974 23408 78%
c -  4.55 26 385 0 6 1189 38 9384 3710 4.2 30 7 3 11 24% 17069 101967 23408 78%
c o  4.78 26 391 0 6 1238 38 10070 4334 4.2 31 7 3 11 24% 17090 101964 23408 78%
c -  5.37 26 359 0 7 1391 36 11833 4931 4.4 33 7 2 10 24% 17160 101961 23408 78%
c s  5.47 26 381 0 7 1402 35 12517 5529 4.3 31 7 2 10 24% 17189 98925 23408 78%
c e  5.61 26 381 0 7 1402 35 12517 5529 4.3 31 7 2 10 24% 16088 99687 22518 75%
c 2  5.61 26 381 0 7 1402 35 12517 5529 4.3 31 7 2 10 24% 16087 99687 22518 75%
c s  5.62 26 381 0 7 1402 35 12517 5529 4.3 31 7 2 10 24% 16099 99232 22518 75%
c e  5.63 26 381 0 7 1402 35 12517 5529 4.3 31 7 2 10 24% 15940 99325 22446 75%
c ^  5.63 26 381 0 7 1402 35 12517 5529 4.3 31 7 2 10 24% 15940 99325 22446 75%
c -  6.22 26 362 0 8 1567 34 14478 5730 4.3 31 7 2 10 25% 16002 99325 22446 75%
c
c  seconds   switched    rate        size/glue tier1     binary          remaining
c         MB  reductions   conflicts       size  tier2       irredundant
c           level  restarts     redundant    glue    trail          variables
c
c d  6.73 26 347 0 8 1682 34 15797 6707 4.3 33 8 2 10 25% 15615 99325 22187 74%
c u  6.78 26 347 0 8 1682 34 15797 5855 4.3 33 8 2 10 25% 15626 99325 22187 74%
c v  6.85 26 347 0 8 1682 34 15797 5067 4.3 33 8 2 10 25% 15627 99325 22187 74%
c w  6.95 26 347 0 8 1682 34 15797 5067 4.3 33 8 2 10 25% 15627 99325 22187 74%
c x  6.99 26 347 0 8 1682 34 15797 5066 4.3 33 8 2 10 25% 15638 99180 22187 74%
c =  7.21 26 347 0 8 1682 34 15797 5066 4.3 33 8 2 10 25% 16538 99178 21737 72%
c d  7.23 26 347 0 8 1682 34 15797 5019 4.3 33 8 2 10 25% 15508 99178 21736 72%
c t  7.25 26 347 0 8 1682 34 15797 5019 4.3 33 8 2 10 25% 15438 99178 21736 72%
c f  7.34 26 347 0 8 1682 34 15797 5019 4.3 33 8 2 10 25% 15540 98948 21794 73%
c c  7.42 26 347 0 8 1682 34 15797 5017 4.3 33 8 2 10 25% 15545 98940 21793 73%
c d  7.42 26 347 0 8 1682 34 15797 5017 4.3 33 8 2 10 25% 15543 98940 21793 73%
c u  7.46 26 347 0 8 1682 34 15797 4810 4.3 33 8 2 10 25% 15546 98940 21793 73%
c v  7.50 26 347 0 8 1682 34 15797 4723 4.3 33 8 2 10 25% 15546 98940 21793 73%
c w  7.61 26 347 0 8 1682 34 15797 4718 4.3 33 8 2 10 25% 15546 98940 21793 73%
c x  7.66 26 347 0 8 1682 34 15797 4717 4.3 33 8 2 10 25% 15598 97696 21793 73%
c =  7.89 26 347 0 8 1682 34 15797 4717 4.3 33 8 2 10 25% 16650 97696 21267 71%
c d  7.90 26 347 0 8 1682 34 15797 4706 4.3 33 8 2 10 25% 15205 97696 21267 71%
c t  7.93 26 347 0 8 1682 34 15797 4706 4.3 33 8 2 10 25% 15186 97696 21267 71%
c -  8.18 26 358 0 9 1745 32 17310 5284 4.3 32 7 2 9 25% 15257 97694 21267 71%
c o  8.69 26 366 0 9 1876 31 20070 7642 4.2 31 7 2 9 24% 15365 97692 21267 71%
c
c  seconds   switched     rate        size/glue tier1    binary          remaining
c         MB   reductions   conflicts       size  tier2      irredundant
c           level   restarts     redundant    glue   trail          variables
c
c -  8.82 26 364 0 10 1914 31 20310 7085 4.3 31 7 2 9 25% 15368 97692 21267 71%
c -  9.84 26 359 0 11 2151 31 23472 8797 4.2 32 8 2 8 25% 15458 97687 21267 71%
c s 10.39 26 356 0 11 2287 31 25025 10174 4.2 32 8 2 8 25% 15504 94650 21267 71%
c e 10.52 26 356 0 11 2287 31 25025 10174 4.2 32 8 2 8 25% 11410 99713 19087 64%
c s 10.54 26 356 0 11 2287 31 25025 10174 4.2 32 8 2 8 25% 11436 99417 19087 64%
c e 10.56 26 356 0 11 2287 31 25025 10174 4.2 32 8 2 8 25% 11357 99500 19056 63%
c ^ 10.56 26 356 0 11 2287 31 25025 10174 4.2 32 8 2 8 25% 11357 99500 19056 63%
c - 11.10 26 354 0 12 2428 31 26788 8809 4.3 32 8 2 8 25% 11416 99500 19056 63%
c d 11.15 26 352 0 12 2433 31 26928 8921 4.3 32 8 2 8 26% 11177 99500 18913 63%
c u 11.21 26 352 0 12 2433 31 26928 7624 4.3 32 8 2 8 26% 11210 99500 18913 63%
c v 11.27 26 352 0 12 2433 31 26928 6837 4.3 32 8 2 8 26% 11211 99500 18913 63%
c w 11.29 26 352 0 12 2433 31 26928 6827 4.3 32 8 2 8 26% 11211 99500 18913 63%
c x 11.39 26 352 0 12 2433 31 26928 6819 4.3 32 8 2 8 26% 11244 98119 18913 63%
c = 11.68 26 352 0 12 2433 31 26928 6819 4.3 32 8 2 8 26% 14444 98119 17313 58%
c d 11.69 26 352 0 12 2433 31 26928 6655 4.3 32 8 2 8 26% 11160 98119 17313 58%
c t 11.71 26 352 0 12 2433 31 26928 6655 4.3 32 8 2 8 26% 11113 98119 17313 58%
c f 11.80 26 352 0 12 2433 31 26928 6655 4.3 32 8 2 8 26% 11203 97850 17366 58%
c u 11.86 26 352 0 12 2433 31 26928 6236 4.3 32 8 2 8 26% 11212 97850 17366 58%
c v 11.89 26 352 0 12 2433 31 26928 6109 4.3 32 8 2 8 26% 11213 97850 17366 58%
c w 11.90 26 352 0 12 2433 31 26928 6106 4.3 32 8 2 8 26% 11213 97850 17366 58%
c
c  seconds   switched     rate        size/glue tier1    binary          remaining
c         MB   reductions   conflicts       size  tier2      irredundant
c           level   restarts     redundant    glue   trail          variables
c
c x 12.02 26 352 0 12 2433 31 26928 6104 4.3 32 8 2 8 26% 11232 90776 17366 58%
c = 12.28 26 352 0 12 2433 31 26928 6104 4.3 32 8 2 8 26% 13128 90769 16418 55%
c d 12.29 26 352 0 12 2433 31 26928 6041 4.3 32 8 2 8 26% 11178 90769 16418 55%
c t 12.30 26 352 0 12 2433 31 26928 6041 4.3 32 8 2 8 26% 11112 90769 16418 55%
c f 12.34 26 352 0 12 2433 31 26928 6041 4.3 32 8 2 8 26% 11145 90666 16441 55%
c - 12.69 26 359 0 13 2554 30 30254 8151 4.1 30 7 2 8 25% 11230 90666 16441 55%
c - 13.28 26 358 0 14 2770 29 33860 10264 4.0 30 7 2 7 25% 11287 90663 16441 55%
c - 14.02 26 360 0 15 3042 29 37601 12029 4.0 29 7 2 7 25% 11373 90662 16441 55%
c o 14.60 26 356 0 15 3242 29 40167 14243 4.0 29 7 2 7 25% 11418 90662 16441 55%
c d 14.88 26 353 0 15 3326 29 41255 15150 3.9 29 7 2 7 25% 11368 90662 16411 55%
c u 14.96 26 353 0 15 3326 29 41255 12617 3.9 29 7 2 7 25% 11397 90662 16411 55%
c v 15.02 26 353 0 15 3326 29 41255 11957 3.9 29 7 2 7 25% 11397 90662 16411 55%
c w 15.07 26 353 0 15 3326 29 41255 11957 3.9 29 7 2 7 25% 11397 90662 16411 55%
c x 15.14 26 353 0 15 3326 29 41255 11956 3.9 29 7 2 7 25% 11398 85858 16411 55%
c = 15.36 26 353 0 15 3326 29 41255 11956 3.9 29 7 2 7 25% 11420 85858 16400 55%
c d 15.37 26 353 0 15 3326 29 41255 11955 3.9 29 7 2 7 25% 11394 85858 16399 55%
c t 15.39 26 353 0 15 3326 29 41255 11955 3.9 29 7 2 7 25% 11366 85858 16399 55%
c f 15.41 26 353 0 15 3326 29 41255 11955 3.9 29 7 2 7 25% 11367 85848 16401 55%
c c 15.48 26 353 0 15 3326 29 41255 11941 3.9 29 7 2 7 25% 11420 85653 16374 55%
c d 15.49 26 353 0 15 3326 29 41255 11941 3.9 29 7 2 7 25% 11366 85653 16374 55%
c
c  seconds   switched     rate         size/glue tier1    binary          remaining
c         MB   reductions   conflicts        size  tier2      irredundant
c           level   restarts      redundant    glue   trail          variables
c
c u 15.54 26 353 0 15 3326 29 41255 11488 3.9 29 7 2 7 25% 11363 85653 16374 55%
c v 15.60 26 353 0 15 3326 29 41255 10758 3.9 29 7 2 7 25% 11365 85653 16374 55%
c w 15.68 26 353 0 15 3326 29 41255 10758 3.9 29 7 2 7 25% 11365 85653 16374 55%
c x 15.74 26 353 0 15 3326 29 41255 10757 3.9 29 7 2 7 25% 11368 83909 16374 55%
c = 15.97 26 353 0 15 3326 29 41255 10757 3.9 29 7 2 7 25% 11382 83909 16367 55%
c d 15.98 26 353 0 15 3326 29 41255 10753 3.9 29 7 2 7 25% 11367 83909 16367 55%
c t 16.00 26 353 0 15 3326 29 41255 10753 3.9 29 7 2 7 25% 11364 83909 16367 55%
c - 16.05 26 354 0 16 3350 29 41474 9582 3.9 29 7 2 7 24% 11374 83909 16367 55%
c - 16.66 26 344 0 17 3550 28 45475 11675 3.9 29 7 2 7 24% 11431 83909 16367 55%
c - 17.53 26 332 0 18 3830 28 49599 13582 3.9 28 7 2 7 24% 11494 83908 16367 55%
c s 17.72 26 330 0 18 3870 27 52137 15762 3.8 27 7 2 7 23% 11544 80660 16367 55%
c e 17.83 26 330 0 18 3870 27 52137 15762 3.8 27 7 2 7 23% 10496 82353 15804 53%
c s 17.83 26 330 0 18 3870 27 52137 15762 3.8 27 7 2 7 23% 10505 81980 15804 53%
c e 17.85 26 330 0 18 3870 27 52137 15762 3.8 27 7 2 7 23% 10435 82090 15767 53%
c ^ 17.85 26 330 0 18 3870 27 52137 15762 3.8 27 7 2 7 23% 10435 82090 15767 53%
c - 18.17 26 331 0 19 4011 27 53842 14215 3.8 27 7 2 6 23% 10467 82090 15767 53%
c - 18.62 26 323 0 20 4215 26 58202 16176 3.7 27 7 2 6 23% 10514 82090 15767 53%
c d 18.78 26 322 0 20 4275 26 58884 16684 3.8 27 7 2 6 23% 10482 82089 15743 52%
c u 18.87 26 322 0 20 4275 26 58884 13738 3.8 27 7 2 6 23% 10533 82089 15743 52%
c v 18.94 26 322 0 20 4275 26 58884 12585 3.8 27 7 2 6 23% 10539 82089 15743 52%
c
c  seconds   switched     rate         size/glue tier1    binary          remaining
c         MB   reductions   conflicts        size  tier2      irredundant
c           level   restarts      redundant    glue   trail          variables
c
c w 19.01 26 322 0 20 4275 26 58884 12581 3.8 27 7 2 6 23% 10539 82089 15743 52%
c x 19.08 26 322 0 20 4275 26 58884 12576 3.8 27 7 2 6 23% 10543 81618 15743 52%
c = 19.33 26 322 0 20 4275 26 58884 12576 3.8 27 7 2 6 23% 11105 81618 15462 52%
c d 19.34 26 322 0 20 4275 26 58884 12235 3.8 27 7 2 6 23% 10469 81618 15453 51%
c t 19.35 26 322 0 20 4275 26 58884 12235 3.8 27 7 2 6 23% 10425 81618 15453 51%
c f 19.40 26 322 0 20 4275 26 58884 12235 3.8 27 7 2 6 23% 10435 81546 15463 52%
c c 19.47 26 322 0 20 4275 26 58884 12181 3.8 27 7 2 6 23% 10497 81303 15430 51%
c d 19.48 26 322 0 20 4275 26 58884 12181 3.8 27 7 2 6 23% 10431 81303 15430 51%
c u 19.54 26 322 0 20 4275 26 58884 11457 3.8 27 7 2 6 23% 10440 81303 15430 51%
c v 19.59 26 322 0 20 4275 26 58884 11103 3.8 27 7 2 6 23% 10441 81303 15430 51%
c w 19.68 26 322 0 20 4275 26 58884 11067 3.8 27 7 2 6 23% 10441 81303 15430 51%
c x 19.76 26 322 0 20 4275 26 58884 11063 3.8 27 7 2 6 23% 10446 79273 15430 51%
c = 20.01 26 322 0 20 4275 26 58884 11063 3.8 27 7 2 6 23% 11878 79273 14714 49%
c d 20.01 26 322 0 20 4275 26 58884 10671 3.8 27 7 2 6 23% 10394 79273 14711 49%
c t 20.03 26 322 0 20 4275 26 58884 10671 3.8 27 7 2 6 23% 10304 79273 14711 49%
c f 20.05 26 322 0 20 4275 26 58884 10671 3.8 27 7 2 6 23% 10332 79110 14732 49%
c - 20.68 26 310 0 21 4599 26 62674 12495 3.7 27 7 2 6 23% 10399 79110 14732 49%
c - 21.64 26 298 0 22 5041 26 67256 13249 3.7 27 7 1 6 23% 10480 79110 14732 49%
c o 22.00 26 293 0 22 5201 26 70675 16062 3.7 26 7 1 6 23% 10570 79110 14732 49%
c - 22.17 26 289 0 23 5279 25 71946 14201 3.7 26 7 1 6 23% 10610 79109 14732 49%
c
c  seconds   switched     rate         size/glue tier1    binary          remaining
c         MB   reductions   conflicts        size  tier2      irredundant
c           level   restarts      redundant    glue   trail          variables
c
c - 22.82 26 281 0 24 5669 25 76741 15320 3.7 26 7 1 6 23% 10706 79109 14732 49%
c c 23.44 26 276 0 24 5971 25 79944 18157 3.6 26 7 1 6 23% 10876 77921 14520 48%
c d 23.45 26 276 0 24 5971 25 79944 17570 3.6 26 7 1 6 23% 10452 77921 14520 48%
c u 23.49 26 276 0 24 5971 25 79944 15491 3.6 26 7 1 6 23% 10456 77921 14520 48%
c v 23.55 26 276 0 24 5971 25 79944 12834 3.6 26 7 1 6 23% 10482 77921 14520 48%
c w 23.68 26 276 0 24 5971 25 79944 12830 3.6 26 7 1 6 23% 10482 77921 14520 48%
c x 23.80 26 276 0 24 5971 25 79944 12826 3.6 26 7 1 6 23% 10505 74556 14520 48%
c = 24.04 26 276 0 24 5971 25 79944 12826 3.6 26 7 1 6 23% 11145 74556 14200 47%
c d 24.05 26 276 0 24 5971 25 79944 12466 3.6 26 7 1 6 23% 10407 74556 14192 47%
c t 24.06 26 276 0 24 5971 25 79944 12466 3.6 26 7 1 6 23% 10315 74556 14192 47%
c f 24.08 26 276 0 24 5971 25 79944 12466 3.6 26 7 1 6 23% 10328 74480 14203 47%
c c 24.12 26 276 0 24 5971 25 79944 12465 3.6 26 7 1 6 23% 10332 74469 14202 47%
c d 24.13 26 276 0 24 5971 25 79944 12465 3.6 26 7 1 6 23% 10330 74469 14202 47%
c u 24.16 26 276 0 24 5971 25 79944 11915 3.6 26 7 1 6 23% 10332 74469 14202 47%
c v 24.19 26 276 0 24 5971 25 79944 11277 3.6 26 7 1 6 23% 10338 74469 14202 47%
c w 24.30 26 276 0 24 5971 25 79944 11221 3.6 26 7 1 6 23% 10338 74469 14202 47%
c x 24.36 26 276 0 24 5971 25 79944 11216 3.6 26 7 1 6 23% 10362 73989 14202 47%
c = 24.64 26 276 0 24 5971 25 79944 11216 3.6 26 7 1 6 23% 10956 73969 13904 46%
c d 24.64 26 276 0 24 5971 25 79944 11029 3.6 26 7 1 6 23% 10321 73969 13904 46%
c t 24.66 26 276 0 24 5971 25 79944 11029 3.6 26 7 1 6 23% 10254 73969 13904 46%
c
c  seconds   switched     rate         size/glue tier1    binary          remaining
c         MB   reductions   conflicts        size  tier2      irredundant
c           level   restarts      redundant    glue   trail          variables
c
c f 24.67 26 276 0 24 5971 25 79944 11029 3.6 26 7 1 6 23% 10272 73873 13917 46%
c - 24.95 26 275 0 25 6151 25 81639 10697 3.6 26 7 1 6 23% 10277 73871 13917 46%
c - 25.36 26 271 0 26 6331 24 86639 12891 3.6 25 7 1 6 22% 10355 73863 13917 46%
c - 25.87 26 262 0 27 6701 24 91738 15168 3.5 25 7 1 6 22% 10417 73855 13917 46%
c s 26.55 26 255 0 27 7026 24 95795 18852 3.5 25 7 1 6 22% 10467 69983 13917 46%
c e 26.63 26 255 0 27 7026 24 95795 18852 3.5 25 7 1 6 22% 6955 78432 12134 40%
c 2 26.63 26 255 0 27 7026 24 95795 18852 3.5 25 7 1 6 22% 6946 78432 12134 40%
c s 26.65 26 255 0 27 7026 24 95795 18852 3.5 25 7 1 6 22% 6961 77776 12134 40%
c e 26.66 26 255 0 27 7026 24 95795 18852 3.5 25 7 1 6 22% 6907 77913 12105 40%
c ^ 26.66 26 255 0 27 7026 24 95795 18852 3.5 25 7 1 6 22% 6907 77913 12105 40%
c - 26.79 26 254 0 28 7112 24 96935 12615 3.5 25 7 1 5 22% 6919 77913 12105 40%
c - 27.93 26 244 0 29 7933 24 102226 14948 3.5 25 7 1 5 23% 6966 77913 12105 40%
c d 28.71 26 241 0 29 8340 24 104570 17087 3.5 26 7 1 5 23% 6934 77913 12083 40%
c u 28.78 26 241 0 29 8340 24 104570 15171 3.5 26 7 1 5 23% 6951 77913 12083 40%
c v 28.89 26 241 0 29 8340 24 104570 12941 3.5 26 7 1 5 23% 6954 77913 12083 40%
c w 29.10 26 241 0 29 8340 24 104570 12925 3.5 26 7 1 5 23% 6954 77913 12083 40%
c x 29.16 26 241 0 29 8340 24 104570 12925 3.5 26 7 1 5 23% 6954 77828 12083 40%
c = 29.55 26 241 0 29 8340 24 104570 12925 3.5 26 7 1 5 23% 7298 77706 11898 40%
c d 29.56 26 241 0 29 8340 24 104570 12660 3.5 26 7 1 5 23% 6923 77706 11898 40%
c t 29.57 26 241 0 29 8340 24 104570 12660 3.5 26 7 1 5 23% 6829 77706 11898 40%
c
c  seconds   switched     rate          size/glue tier1    binary         remaining
c         MB   reductions   conflicts         size  tier2     irredundant
c           level   restarts       redundant    glue   trail         variables
c
c f 29.62 26 241 0 29 8340 24 104570 12660 3.5 26 7 1 5 23% 6841 77603 11907 40%
c u 29.67 26 241 0 29 8340 24 104570 12059 3.5 26 7 1 5 23% 6851 77603 11907 40%
c v 29.69 26 241 0 29 8340 24 104570 11584 3.5 26 7 1 5 23% 6853 77603 11907 40%
c w 29.84 26 241 0 29 8340 24 104570 11169 3.5 26 7 1 5 23% 6853 77603 11907 40%
c t 30.18 26 241 0 29 8340 24 104570 11169 3.5 26 7 1 5 23% 6849 77603 11907 40%
c i 30.59 26 238 0 29 8719 25 107394 13818 3.5 26 7 1 5 24% 6860 77603 11906 40%
c - 30.61 26 238 0 30 8738 25 107611 11947 3.5 26 7 1 5 24% 6859 77603 11906 40%
c i 30.75 26 236 0 30 8864 24 108913 13161 3.5 26 7 1 5 24% 6866 77603 11905 40%
c o 31.00 26 234 0 30 9081 24 110707 14853 3.4 26 7 1 5 24% 6867 77602 11905 40%
c - 31.35 26 231 0 31 9395 25 113088 14573 3.4 26 8 1 5 24% 6871 77602 11905 40%
c i 31.97 26 227 0 31 9835 25 116955 18178 3.4 26 8 1 5 24% 6877 77600 11903 40%
c i 31.97 26 227 0 31 9835 25 116956 18178 3.4 26 8 1 5 24% 6877 77600 11902 40%
c i 32.11 26 226 0 31 9939 25 117794 18951 3.4 26 8 1 5 24% 6882 77600 11900 40%
c - 32.19 26 225 0 32 10009 25 118658 16671 3.4 26 8 1 5 24% 6880 77598 11900 40%
c i 32.60 26 219 0 32 10289 24 123272 20945 3.3 26 8 1 5 24% 6901 77597 11899 40%
c - 32.68 26 217 0 33 10350 24 124314 18312 3.3 25 8 1 5 24% 6906 77597 11899 40%
c i 32.98 26 213 0 33 10518 23 127066 20842 3.3 25 8 1 5 24% 6912 77597 11898 40%
c i 32.98 26 213 0 33 10518 23 127079 20844 3.3 25 8 1 5 24% 6915 77597 11897 40%
c i 33.00 26 212 0 33 10521 23 127810 21436 3.3 25 8 1 5 24% 6922 77597 11895 40%
c i 33.24 26 210 0 33 10669 23 129587 23094 3.3 25 8 1 5 24% 6927 77597 11891 40%
c
c  seconds   switched      rate          size/glue tier1    binary         remaining
c         MB   reductions    conflicts         size  tier2     irredundant
c           level   restarts        redundant    glue   trail         variables
c
c - 33.28 26 209 0 34 10693 23 130059 19383 3.3 25 8 1 5 24% 6913 77597 11891 40%
c i 33.31 26 209 0 34 10709 23 130419 19686 3.3 25 8 1 5 25% 6918 77597 11890 40%
c i 33.31 26 209 0 34 10709 23 130421 19686 3.3 25 8 1 5 25% 6919 77597 11888 40%
c i 33.33 26 208 0 34 10728 23 130775 20018 3.3 25 8 1 5 25% 6920 77597 11886 40%
c d 33.49 26 205 0 34 10893 22 132823 21697 3.2 25 8 1 5 25% 6965 77409 11885 40%
c d 33.50 26 205 0 34 10893 22 132823 21682 3.2 25 8 1 5 25% 6925 77409 11865 40%
c u 33.53 26 205 0 34 10893 22 132823 19169 3.2 25 8 1 5 25% 6944 77409 11865 40%
c v 33.60 26 205 0 34 10893 22 132823 15861 3.2 25 8 1 5 25% 6960 77409 11864 40%
c w 33.66 26 205 0 34 10893 22 132823 15756 3.2 25 8 1 5 25% 6953 77409 11864 40%
c x 33.71 26 205 0 34 10893 22 132823 15747 3.2 25 8 1 5 25% 6958 77028 11864 40%
c d 33.72 26 205 0 34 10893 22 132823 15721 3.2 25 8 1 5 25% 6950 77028 11860 40%
c t 33.73 26 205 0 34 10893 22 132823 15721 3.2 25 8 1 5 25% 6925 77028 11860 40%
c u 33.77 26 205 0 34 10893 22 132823 15084 3.2 25 8 1 5 25% 6939 77028 11860 40%
c v 33.81 26 205 0 34 10893 22 132823 14422 3.2 25 8 1 5 25% 6942 77028 11860 40%
c w 33.96 26 205 0 34 10893 22 132823 14051 3.2 25 8 1 5 25% 6942 77028 11860 40%
c x 34.05 26 205 0 34 10893 22 132823 14041 3.2 25 8 1 5 25% 6999 74081 11860 40%
c t 34.64 26 205 0 34 10893 22 132823 14041 3.2 25 8 1 5 25% 6966 74081 11860 40%
c i 34.66 26 205 0 34 10893 22 132823 14041 3.2 25 8 1 5 25% 6966 74081 11860 40%
c i 34.71 26 204 0 34 10908 22 133540 14665 3.2 25 8 1 5 25% 6972 74081 11859 40%
c i 34.94 26 201 0 34 11021 22 135424 16403 3.2 25 8 1 5 24% 6978 74081 11858 40%
c
c  seconds   switched      rate          size/glue tier1    binary         remaining
c         MB   reductions    conflicts         size  tier2     irredundant
c           level   restarts        redundant    glue   trail         variables
c
c - 34.96 26 200 0 35 11026 22 135893 13753 3.2 25 8 1 5 24% 6961 74081 11858 40%
c i 35.00 26 200 0 35 11051 22 136286 14087 3.2 25 8 1 5 24% 6971 74081 11857 39%
c i 35.02 26 198 0 35 11070 22 136809 14559 3.2 25 8 1 5 24% 6974 74081 11856 39%
c i 35.09 26 194 0 35 11124 21 138756 16241 3.2 24 8 1 5 24% 7016 74080 11854 39%
c i 35.09 26 194 0 35 11124 21 138821 16270 3.2 24 8 1 5 24% 7026 74080 11853 39%
c i 35.09 26 194 0 35 11124 21 138828 16270 3.2 24 8 1 5 24% 7030 74080 11851 39%
c i 35.09 26 194 0 35 11124 21 138837 16272 3.2 24 8 1 5 24% 7032 74079 11807 39%
c } 35.09 26 194 0 35 11124 21 138839 16272 3.2 24 8 1 5 24% 7032 74079 11801 39%
c 0 35.09 26 194 0 35 11124 21 138839 16272 3.2 24 8 1 5 24% 7032 74079 11801 39%
c
c ---- [ result ] ------------------------------------------------------------
c
s UNSATISFIABLE
c
c ---- [ profiling ] ---------------------------------------------------------
c
c          23.65   67.39 %  search
c          23.65   67.39 %  focused
c          11.00   31.36 %  simplify
c          10.48   29.85 %  probe
c           4.25   12.12 %  sweep
c           4.14   11.80 %  vivify
c           0.75    2.12 %  factor
c           0.71    2.03 %  eliminate
c           0.59    1.69 %  substitute
c           0.52    1.48 %  congruence
c           0.39    1.10 %  preprocess
c           0.22    0.63 %  reduce
c           0.20    0.56 %  fastel
c           0.14    0.41 %  transitive
c           0.14    0.40 %  subsume
c           0.08    0.23 %  backbone
c           0.03    0.09 %  lucky
c           0.02    0.06 %  parse
c =============================================
c          35.09  100.00 %  total
c
c ---- [ statistics ] --------------------------------------------------------
c
c chronological:                         6328                5 %  conflicts
c conflicts:                           138839             3956.34 per second
c congruent:                             2729                9 %  variables
c decisions:                          3052590               21.99 per conflict
c eliminated:                           14949               50 %  variables
c factored:                              6295               21 %  variables
c fast_eliminated:                       9364               63 %  eliminated
c fast_strengthened:                      159                7 %  per strengthened
c fast_subsumed:                           77                1 %  per subsumed
c iterations:                              22                0 %  variables
c propagations:                     119933962          3417624    per second
c reductions:                              35             3967    interval
c reordered:                                5            27768    interval
c restarts:                             11124               12    interval
c strengthened:                          2179                0 %  checks
c substituted:                           9467               32 %  variables
c subsumed:                             14971                1 %  checks
c switched:                                 0                0    interval
c vivified:                             74489               13 %  checks
c
c ---- [ glue usage ] --------------------------------------------------------
c
c focused glue 1 used 208555 clauses 57.98% accumulated 57.98% tier1
c focused glue 2 used  70272 clauses 19.54% accumulated 77.52%
c focused glue 3 used  23816 clauses  6.62% accumulated 84.14%
c focused glue 4 used  14347 clauses  3.99% accumulated 88.13%
c focused glue 5 used   9214 clauses  2.56% accumulated 90.69% tier2
c
c ---- [ resources ] ---------------------------------------------------------
c
c maximum-resident-set-size:         27021312 bytes         26 MB
c process-time:                            35s              35.09 seconds
c
c ---- [ shutting down ] -----------------------------------------------------
c
c exit 20
